 C  N  H Sn  I                          
   1.00000000000000     
     8.1806690543476215    0.0816221137794193    0.2662751511952911
    -0.1186153817850871    8.6689866521362688   -0.6107548487826377
    -1.1899309427688418   -5.2172611389750712   14.5275746717818848
   C    N    H    Sn   I 
    16     4    48     2     8
Direct
  0.5717322920697256  0.2534835697506352  0.6457566277467777
  0.0667360005841573  0.3711058827824445  0.1141253117299073
  0.6231145200696417  0.3619879897977967  0.7478604016543500
  0.9807080488649760  0.2405292019498191  0.0256478212824902
  0.5199190829367240  0.3224905019275042  0.8162374104390153
  0.0243208684518450  0.2628176817107644  0.9366427955547749
  0.5709804240962200  0.4342817059432065  0.9184757060158262
  0.9380478414248543  0.1304258082472316  0.8483288052621205
  0.0962257228930312  0.7697148099641780  0.6579764472361518
  0.4588545665377453  0.8262681042872870  0.1162804990925750
  0.0221658386095243  0.6761013964863949  0.7116497970812077
  0.5040730450699513  0.9484788481245943  0.0730548194966687
  0.1430449340223845  0.6716327130900552  0.7888495545587944
  0.4019782526672557  0.9168027369617988  0.9820467155665256
  0.0684316815024957  0.5963907054513413  0.8519539861999093
  0.4550094669885780  0.0316090260141877  0.9349180808158977
  0.6658449247067963  0.3052440843122639  0.5812950090309386
  0.0078713636147114  0.3549461589166114  0.1999633098810705
  0.9755195585050487  0.7890049507789314  0.5876286813356302
  0.5625824259536287  0.8586007752881528  0.2041027861752909
  0.6259986014794450  0.2385084476603012  0.5114356086366740
  0.0686168609589188  0.4410389612850523  0.2611661912999423
  0.6506436258984465  0.4329152941973291  0.5962655350263475
  0.0218793504413242  0.2340747905626799  0.1974544568866392
  0.7904112710429487  0.2834836387042259  0.5868524829702224
  0.8829957048265484  0.3795327308976510  0.2056559973571765
  0.4414301711846136  0.2663223629357887  0.6299807152469796
  0.2002734984940489  0.3577338350733328  0.1154442404701754
  0.5932727992869786  0.1195430523032286  0.6273246540254220
  0.0413492418432497  0.4999238144119857  0.1216120783928645
  0.6109825836903724  0.4955545413855802  0.7602126539033875
  0.0118339535049898  0.1135625520007864  0.0198566721761750
  0.7536438663982779  0.3442829044960050  0.7615951423045573
  0.8471727144864047  0.2500178998344040  0.0324466889955772
  0.5306036323487220  0.1889272107211184  0.8036463194286583
  0.9912503916750524  0.3895886775580024  0.9433433056941212
  0.3897299730899064  0.3395841853873023  0.8012682049890714
  0.1579390315276399  0.2564547981053664  0.9301044068787689
  0.6966673890710666  0.4107505722904321  0.9375634375139512
  0.8042832940346187  0.1364261714349482  0.8517492318818043
  0.4909629033905603  0.4149690300573425  0.9683153883210593
  0.9703276703439627  0.1460428006066792  0.7841709181879466
  0.5676959163638813  0.5674077190422935  0.9296557214028880
  0.9716224939320242  0.0036460999207719  0.8408294304556421
  0.0065540259915053  0.8933647644316238  0.5738163108126031
  0.5567387946649873  0.7563193396725296  0.2229466352990102
  0.9691756983390363  0.6827752235551046  0.5245655399580968
  0.5260405116163938  0.9651526989332311  0.2602156343039610
  0.8567963779264929  0.8040512841705265  0.6112165704469419
  0.6859901735103264  0.8761631910162677  0.1946215936718687
  0.2019963129107722  0.7055934528373839  0.6195745521726650
  0.3305236532130706  0.8369257934161141  0.1353136907359058
  0.1385517536872740  0.8970872719107419  0.7058329664317498
  0.4779497228968026  0.6955964258567846  0.0684094612584758
  0.9093234419701091  0.7373531318517692  0.7430836621627890
  0.6351910685378144  0.9378900906466896  0.0586683498939706
  0.9863350451367623  0.5470524889663579  0.6624300718694087
  0.4885058174229115  0.0783031788219688  0.1244011008955823
  0.1886417401657354  0.8005747551363456  0.8320199870881382
  0.4117881530037621  0.7845504087850301  0.9326222443363790
  0.2507491351446376  0.6005501327030629  0.7560571470537880
  0.2716688142829042  0.9337108318147642  0.9977395138402230
  0.9631131082953317  0.6679890626401814  0.8874706067423190
  0.5834983302706718  0.0120847345443451  0.9163336449393285
  0.1577943764814620  0.5960434543336248  0.9072461156309899
  0.3812449640391620  0.0080315540350355  0.8693704884789355
  0.0264478967143589  0.4658194536252367  0.8103414918196492
  0.4445962902785539  0.1643894690885688  0.9825118145071983
  0.5472473227054451  0.5664917097249074  0.4025201901234396
  0.0521101728675077  0.0448877840433184  0.3854703717342858
  0.0931130150207409  0.1923329973860035  0.6082410184246640
  0.5622144090578090  0.7329562892578636  0.6343793857815996
  0.7269276575837651  0.8896027133550106  0.4210894181963738
  0.5793877811538692  0.4409436657398160  0.1845984149954987
  0.3742004233949743  0.2182547104067609  0.3696934636331548
  0.8755675883148513  0.3815136120696323  0.4125708404191428
  0.2183049563948245  0.7170362659934142  0.3729300172860306
  0.9821084626196139  0.9074521755176335  0.1603347752829336
 
  0.00000000E+00  0.00000000E+00  0.00000000E+00
  0.00000000E+00  0.00000000E+00  0.00000000E+00
  0.00000000E+00  0.00000000E+00  0.00000000E+00
  0.00000000E+00  0.00000000E+00  0.00000000E+00
  0.00000000E+00  0.00000000E+00  0.00000000E+00
  0.00000000E+00  0.00000000E+00  0.00000000E+00
  0.00000000E+00  0.00000000E+00  0.00000000E+00
  0.00000000E+00  0.00000000E+00  0.00000000E+00
  0.00000000E+00  0.00000000E+00  0.00000000E+00
  0.00000000E+00  0.00000000E+00  0.00000000E+00
  0.00000000E+00  0.00000000E+00  0.00000000E+00
  0.00000000E+00  0.00000000E+00  0.00000000E+00
  0.00000000E+00  0.00000000E+00  0.00000000E+00
  0.00000000E+00  0.00000000E+00  0.00000000E+00
  0.00000000E+00  0.00000000E+00  0.00000000E+00
  0.00000000E+00  0.00000000E+00  0.00000000E+00
  0.00000000E+00  0.00000000E+00  0.00000000E+00
  0.00000000E+00  0.00000000E+00  0.00000000E+00
  0.00000000E+00  0.00000000E+00  0.00000000E+00
  0.00000000E+00  0.00000000E+00  0.00000000E+00
  0.00000000E+00  0.00000000E+00  0.00000000E+00
  0.00000000E+00  0.00000000E+00  0.00000000E+00
  0.00000000E+00  0.00000000E+00  0.00000000E+00
  0.00000000E+00  0.00000000E+00  0.00000000E+00
  0.00000000E+00  0.00000000E+00  0.00000000E+00
  0.00000000E+00  0.00000000E+00  0.00000000E+00
  0.00000000E+00  0.00000000E+00  0.00000000E+00
  0.00000000E+00  0.00000000E+00  0.00000000E+00
  0.00000000E+00  0.00000000E+00  0.00000000E+00
  0.00000000E+00  0.00000000E+00  0.00000000E+00
  0.00000000E+00  0.00000000E+00  0.00000000E+00
  0.00000000E+00  0.00000000E+00  0.00000000E+00
  0.00000000E+00  0.00000000E+00  0.00000000E+00
  0.00000000E+00  0.00000000E+00  0.00000000E+00
  0.00000000E+00  0.00000000E+00  0.00000000E+00
  0.00000000E+00  0.00000000E+00  0.00000000E+00
  0.00000000E+00  0.00000000E+00  0.00000000E+00
  0.00000000E+00  0.00000000E+00  0.00000000E+00
  0.00000000E+00  0.00000000E+00  0.00000000E+00
  0.00000000E+00  0.00000000E+00  0.00000000E+00
  0.00000000E+00  0.00000000E+00  0.00000000E+00
  0.00000000E+00  0.00000000E+00  0.00000000E+00
  0.00000000E+00  0.00000000E+00  0.00000000E+00
  0.00000000E+00  0.00000000E+00  0.00000000E+00
  0.00000000E+00  0.00000000E+00  0.00000000E+00
  0.00000000E+00  0.00000000E+00  0.00000000E+00
  0.00000000E+00  0.00000000E+00  0.00000000E+00
  0.00000000E+00  0.00000000E+00  0.00000000E+00
  0.00000000E+00  0.00000000E+00  0.00000000E+00
  0.00000000E+00  0.00000000E+00  0.00000000E+00
  0.00000000E+00  0.00000000E+00  0.00000000E+00
  0.00000000E+00  0.00000000E+00  0.00000000E+00
  0.00000000E+00  0.00000000E+00  0.00000000E+00
  0.00000000E+00  0.00000000E+00  0.00000000E+00
  0.00000000E+00  0.00000000E+00  0.00000000E+00
  0.00000000E+00  0.00000000E+00  0.00000000E+00
  0.00000000E+00  0.00000000E+00  0.00000000E+00
  0.00000000E+00  0.00000000E+00  0.00000000E+00
  0.00000000E+00  0.00000000E+00  0.00000000E+00
  0.00000000E+00  0.00000000E+00  0.00000000E+00
  0.00000000E+00  0.00000000E+00  0.00000000E+00
  0.00000000E+00  0.00000000E+00  0.00000000E+00
  0.00000000E+00  0.00000000E+00  0.00000000E+00
  0.00000000E+00  0.00000000E+00  0.00000000E+00
  0.00000000E+00  0.00000000E+00  0.00000000E+00
  0.00000000E+00  0.00000000E+00  0.00000000E+00
  0.00000000E+00  0.00000000E+00  0.00000000E+00
  0.00000000E+00  0.00000000E+00  0.00000000E+00
  0.00000000E+00  0.00000000E+00  0.00000000E+00
  0.00000000E+00  0.00000000E+00  0.00000000E+00
  0.00000000E+00  0.00000000E+00  0.00000000E+00
  0.00000000E+00  0.00000000E+00  0.00000000E+00
  0.00000000E+00  0.00000000E+00  0.00000000E+00
  0.00000000E+00  0.00000000E+00  0.00000000E+00
  0.00000000E+00  0.00000000E+00  0.00000000E+00
  0.00000000E+00  0.00000000E+00  0.00000000E+00
  0.00000000E+00  0.00000000E+00  0.00000000E+00
  0.00000000E+00  0.00000000E+00  0.00000000E+00
