 C  N  H Sn  I 
 1.0000000000000000
     8.1805010198682986    0.0816654664362400    0.2663082201329470
    -0.1185628209993379    8.6688400664906684   -0.6109142964201795
    -1.1898714057896438   -5.2174511225905986   14.5275093891652851
 C   N   H   Sn  I  
  16   4  48   2   8
Direct
  0.5717035167616396  0.2534660791825601  0.6457625528687333
  0.0667553002574094  0.3711157634300836  0.1141137213845074
  0.6231241292900290  0.3619974521619085  0.7478629050496549
  0.9806968273064793  0.2405190510851686  0.0256487108852572
  0.5199039863551433  0.3224827637633799  0.8162332713551145
  0.0243269718236642  0.2628239348494889  0.9366414655198987
  0.5709834803618128  0.4342885597888453  0.9184851184843800
  0.9380370071925562  0.1304161270615221  0.8483199225523737
  0.0962641138688751  0.7697175889384459  0.6579866807161644
  0.4588233537005072  0.8262512006762673  0.1162642421942524
  0.0221503655824647  0.6760940860659918  0.7116461473782808
  0.5040839520435942  0.9484930168722521  0.0730579253072221
  0.1430574616053852  0.6716354925353663  0.7888500401744164
  0.4019635989204300  0.9167896683113919  0.9820438512167305
  0.0684222094102408  0.5963844676368520  0.8519604282968729
  0.4550147136491701  0.0316165703146413  0.9349137786701144
  0.6658693413100436  0.3052545400914735  0.5812743997188564
  0.0078632411878257  0.3549596216586249  0.1999912018765165
  0.9754954643996855  0.7890060593284551  0.5876093799765282
  0.5626081177661618  0.8586100572965699  0.2041247527130308
  0.6260142379096904  0.2385200936591055  0.5114434432857738
  0.0686059669542889  0.4410225618907599  0.2611583773557951
  0.6506478303090013  0.4329040918920544  0.5962641062789560
  0.0218782992643913  0.2340832041141261  0.1974554372019909
  0.7904009956887053  0.2834927457097782  0.5868539577078412
  0.8830120056176581  0.3795287027476532  0.2056598205986345
  0.4414455217560110  0.2663211057487400  0.6299784919985653
  0.2002565204638248  0.3577325468977754  0.1154439335082798
  0.5932699432330797  0.1195546719111248  0.6273228071392577
  0.0413496826808125  0.4999121423640475  0.1216111210535843
  0.6109873089599168  0.4955510656792849  0.7602135540891620
  0.0118316985399103  0.1135642907109070  0.0198579231660666
  0.7536351165065498  0.3442823206073671  0.7615947960802458
  0.8471764962111121  0.2500122466892923  0.0324476791216471
  0.5305982252979442  0.1889365170164496  0.8036463016782972
  0.9912480915121797  0.3895803942391035  0.9433432252811716
  0.3897361353061758  0.3395896175411468  0.8012693799580667
  0.1579290948850706  0.2564522443646144  0.9301029587580637
  0.6966621381499954  0.4107490161708600  0.9375640214885753
  0.8042865376591369  0.1364220330560978  0.8517472045710163
  0.4909654829703581  0.4149716248509593  0.9683158825304176
  0.9703218840844207  0.1460357087617692  0.7841714293559543
  0.5677001077614930  0.5674082845879942  0.9296595683670381
  0.9716187874456218  0.0036458931799856  0.8408279054016274
  0.0065483295681038  0.8933453482470095  0.5738132572925997
  0.5567411135689280  0.7563378239096530  0.2229480706138878
  0.9691789786064809  0.6827834736022035  0.5245692609501050
  0.5260473885977803  0.9651435325410823  0.2602116985236943
  0.8568111745590618  0.8040474898263540  0.6112102861348047
  0.6859737512660010  0.8761629774968519  0.1946243889803485
  0.2019844425580502  0.7056011957850756  0.6195779132385335
  0.3305362959693430  0.8369252464593738  0.1353119085289604
  0.1385469827402503  0.8970776462413359  0.7058300613248957
  0.4779461750741059  0.6956072317930511  0.0684109151154568
  0.9093289042462077  0.7373468116516924  0.7430814457210605
  0.6351836053572507  0.9378895528244620  0.0586685867456784
  0.9863380978951314  0.5470587324602925  0.6624294155404084
  0.4885090256511133  0.0782948535192723  0.1244000646383655
  0.1886377815915458  0.8005697212422318  0.8320207819992494
  0.4117855644110655  0.7845568916337452  0.9326216109461589
  0.2507434108522109  0.6005535390727812  0.7560588329416384
  0.2716765855177010  0.9337102254539587  0.9977381967851017
  0.9631155623484305  0.6679863276596005  0.8874706877100275
  0.5834946302030283  0.0120829741388113  0.9163320197810720
  0.1577888669163335  0.5960469887253077  0.9072458850879760
  0.3812483361866484  0.0080328950303184  0.8693701663866998
  0.0264490886663085  0.4658250301492124  0.8103444534230733
  0.4445995367507999  0.1643858165591261  0.9825116904716513
  0.5472546885015018  0.5664965101570592  0.4025226721180564
  0.0521127661757110  0.0448922112771306  0.3854692573137686
  0.0931165062286323  0.1923362087598326  0.6082440614698574
  0.5622108885623450  0.7329608327950896  0.6343815030043419
  0.7269286233540093  0.8896055772341551  0.4210903963879873
  0.5793912119624914  0.4409435054625084  0.1845962426145664
  0.3742009682555800  0.2182627709668362  0.3696978501756206
  0.8755691472469683  0.3815102969902324  0.4125710233797639
  0.2183097473157956  0.7170367554720677  0.3729315598662413
  0.9821113558321549  0.9074406383674578  0.1603311513024924
