
num_wann = 512
num_bands= 512

begin projections
  random
  C:  p
  N:  p
  Sn: s,p
  I:  s,p
end projections

spinors = true
guiding_centres = true 

num_iter = 1000             
kmesh_tol = 0.0001
search_shells = 500
      
use_ws_distance =.false.  
write_hr = T         

begin kpoint_path
   X 0.5000000000 0.0000000000 -0.500000000 G 0.0000000000 0.0000000000 0.0000000000
   G 0.0000000000 0.0000000000 0.0000000000 Y 0.0024549918 0.5384615385 -0.1702127660
   Y 0.0024549918 0.5384615385 -0.170212766 R 0.0000000000 0.0000000000 -0.5000000000
   R 0.0000000000 0.0000000000 -0.500000000 X 0.5000000000 0.0000000000 -0.5000000000
end kpoint_path
begin unit_cell_cart
     8.1805010     0.0816655     0.2663082
    -0.1185628     8.6688401    -0.6109143
    -1.1898714    -5.2174511    14.5275094
end unit_cell_cart

begin atoms_cart
C        3.8783952    -1.1252892     9.3787248
C        0.3663106     2.6272120     1.4488457
C        4.1646874    -0.7129524    10.8093790
C        7.9635561     2.0312894     0.4868430
C        3.2436280    -1.4206475    11.7992819
C       -0.9466372    -2.6065157    13.4529833
C        3.5265613    -0.9807435    13.2300457
C        6.6487586    -3.2189060    12.4941095
C       -0.0866907     3.2474068     9.1143121
C        3.5171027     6.5935065     1.3064496
C       -0.7457259     2.1497814     9.9313094
C        3.9242737     7.8823244     0.6161435
C        0.1520206     1.7181970    11.0878120
C        2.0110606     2.8565638    13.8136176
C       -0.5247044     0.7304874    12.0307447
C        2.6060726    -4.5666290    13.6838278
N        4.7193112    -0.3321895     8.4353114
N       -0.2157236     2.0342860     2.6906182
N        7.1873153     3.8536084     8.3142682
N        4.2577348     6.4240880     2.5907143
H        4.4842786    -0.5496149     7.4509968
H        0.1981974     2.4661757     3.5428241
H        4.5618213     0.6949330     8.5710380
H       -0.0837247     1.0008025     2.7313573
H        5.7339837    -0.5397801     8.5628269
H        6.9337739     2.2891652     2.9910188
H        2.8300764    -0.9421361     9.1068797
H        1.4584215     2.5151572     1.5118989
H        4.0926372    -2.1881761     9.1983930
H        0.1342885     3.7025352     1.4723150
H        4.0348720     0.3793724    10.9039813
H        0.0596963     0.8818292     0.2222590
H        5.2180939    -0.9275093    11.0544478
H        6.8620775     2.0672071     0.5442580
H        3.3619227    -2.5117933    11.7008578
H        6.9402591    -1.4636863    13.7304048
H        2.1945666    -1.2049078    11.5367782
H        0.1548305    -2.6167259    13.3974669
H        4.5347651    -1.2740837    13.5550645
H        5.5498226    -3.1956462    12.5046115
H        2.8149720    -1.4147232    13.9444541
H        6.9873416    -2.7461741    11.5612472
H        3.4706224     0.1146798    13.3101835
H        6.9474191    -4.2760251    12.4716580
H       -0.7351129     4.7509601     7.7920639
H        4.1994682     5.4388175     2.9250873
H        7.2232469     3.2611747     7.4616630
H        3.8792826     7.0519930     3.3306987
H        6.1865529     3.8511712     8.6163349
H        5.2761506     6.6358939     2.4748276
H        0.8314578     2.9006216     8.6236522
H        2.4437205     6.5761812     1.5424800
H        0.1871767     4.1053033     9.7428115
H        3.7459658     5.7122089     0.6961648
H        6.4671727     2.5892112    10.5868287
H        5.0151132     7.8761866     0.4484929
H        7.2156732     1.3667213     9.5519135
H        3.8389456     0.0695686     1.8894856
H        0.4582360     2.6143883    11.6483460
H        2.1658932     1.9689192    13.1790341
H        1.0803906     1.2818797    10.6835401
H        0.9245671     2.9107209    13.9965838
H        6.7435935     1.2389850    12.7411419
H        3.6815286    -4.6285208    13.4600298
H        0.1406170     0.4464109    12.8579100
H        2.0834113    -4.4351256    12.7264054
H       -0.8030684    -0.1876099    11.4947511
H        2.4484944    -3.6648639    14.2914227
Sn       3.9307019     2.8554171     5.6473095
Sn      -0.0376729    -1.6177478     5.5863610
I        0.0152035    -1.4985474     8.7435681
I        3.7574324     3.0899790     8.9179284
I        5.3401228     5.5741949     5.7675090
I        4.4677851     2.9066631     2.5666416
I        2.5953807    -0.0062361     5.3371019
I        6.6264549     1.2261864     5.9937306
I        1.2571286     4.2879531     5.0378564
I        7.7358008     7.1101424     2.0363882
end atoms_cart

mp_grid =     5     5     3

begin kpoints
      0.000000000000      0.000000000000      0.000000000000
      0.200000000000     -0.000000000000      0.000000000000
      0.400000000000     -0.000000000000      0.000000000000
     -0.400000000000      0.000000000000     -0.000000000000
     -0.200000000000      0.000000000000     -0.000000000000
      0.000000000000      0.200000000000      0.000000000000
      0.200000000000      0.200000000000      0.000000000000
      0.400000000000      0.200000000000      0.000000000000
     -0.400000000000      0.200000000000      0.000000000000
     -0.200000000000      0.200000000000      0.000000000000
      0.000000000000      0.400000000000      0.000000000000
      0.200000000000      0.400000000000      0.000000000000
      0.400000000000      0.400000000000      0.000000000000
     -0.400000000000      0.400000000000      0.000000000000
     -0.200000000000      0.400000000000      0.000000000000
     -0.000000000000     -0.400000000000     -0.000000000000
      0.200000000000     -0.400000000000     -0.000000000000
      0.400000000000     -0.400000000000      0.000000000000
     -0.400000000000     -0.400000000000     -0.000000000000
     -0.200000000000     -0.400000000000     -0.000000000000
     -0.000000000000     -0.200000000000     -0.000000000000
      0.200000000000     -0.200000000000     -0.000000000000
      0.400000000000     -0.200000000000      0.000000000000
     -0.400000000000     -0.200000000000      0.000000000000
     -0.200000000000     -0.200000000000     -0.000000000000
      0.000000000000      0.000000000000      0.333333333333
      0.200000000000      0.000000000000      0.333333333333
      0.400000000000     -0.000000000000      0.333333333333
     -0.400000000000      0.000000000000      0.333333333333
     -0.200000000000      0.000000000000      0.333333333333
      0.000000000000      0.200000000000      0.333333333333
      0.200000000000      0.200000000000      0.333333333333
      0.400000000000      0.200000000000      0.333333333333
     -0.400000000000      0.200000000000      0.333333333333
     -0.200000000000      0.200000000000      0.333333333333
      0.000000000000      0.400000000000      0.333333333333
      0.200000000000      0.400000000000      0.333333333333
      0.400000000000      0.400000000000      0.333333333333
     -0.400000000000      0.400000000000      0.333333333333
     -0.200000000000      0.400000000000      0.333333333333
     -0.000000000000     -0.400000000000      0.333333333333
      0.200000000000     -0.400000000000      0.333333333333
      0.400000000000     -0.400000000000      0.333333333333
     -0.400000000000     -0.400000000000      0.333333333333
     -0.200000000000     -0.400000000000      0.333333333333
      0.000000000000     -0.200000000000      0.333333333333
      0.200000000000     -0.200000000000      0.333333333333
      0.400000000000     -0.200000000000      0.333333333333
     -0.400000000000     -0.200000000000      0.333333333333
     -0.200000000000     -0.200000000000      0.333333333333
     -0.000000000000      0.000000000000     -0.333333333333
      0.200000000000     -0.000000000000     -0.333333333333
      0.400000000000      0.000000000000     -0.333333333333
     -0.400000000000      0.000000000000     -0.333333333333
     -0.200000000000      0.000000000000     -0.333333333333
      0.000000000000      0.200000000000     -0.333333333333
      0.200000000000      0.200000000000     -0.333333333333
      0.400000000000      0.200000000000     -0.333333333333
     -0.400000000000      0.200000000000     -0.333333333333
     -0.200000000000      0.200000000000     -0.333333333333
      0.000000000000      0.400000000000     -0.333333333333
      0.200000000000      0.400000000000     -0.333333333333
      0.400000000000      0.400000000000     -0.333333333333
     -0.400000000000      0.400000000000     -0.333333333333
     -0.200000000000      0.400000000000     -0.333333333333
     -0.000000000000     -0.400000000000     -0.333333333333
      0.200000000000     -0.400000000000     -0.333333333333
      0.400000000000     -0.400000000000     -0.333333333333
     -0.400000000000     -0.400000000000     -0.333333333333
     -0.200000000000     -0.400000000000     -0.333333333333
      0.000000000000     -0.200000000000     -0.333333333333
      0.200000000000     -0.200000000000     -0.333333333333
      0.400000000000     -0.200000000000     -0.333333333333
     -0.400000000000     -0.200000000000     -0.333333333333
     -0.200000000000     -0.200000000000     -0.333333333333
end kpoints
